SECTION Graph
Nodes 528
Edges 1017
E 1 5 7
E 1 434 6
E 1 436 1
E 1 438 3
E 2 440 9
E 2 443 3
E 3 10 7
E 3 418 6
E 3 421 1
E 3 431 10
E 4 431 3
E 4 435 7
E 5 441 1
E 5 442 3
E 6 442 7
E 6 443 7
E 7 17 5
E 7 432 3
E 7 434 1
E 7 436 6
E 8 9 10
E 8 10 7
E 8 432 1
E 8 434 3
E 9 11 7
E 9 439 3
E 9 440 3
E 10 11 10
E 10 426 1
E 11 431 7
E 11 435 3
E 12 20 5
E 12 411 3
E 12 418 1
E 12 421 6
E 13 14 10
E 13 411 1
E 13 418 3
E 14 424 3
E 15 16 10
E 15 25 7
E 15 416 3
E 15 422 3
E 16 26 7
E 16 428 1
E 16 430 3
E 17 428 3
E 17 430 1
E 17 433 6
E 18 19 10
E 18 394 3
E 18 401 3
E 19 406 1
E 19 409 3
E 20 406 3
E 20 409 1
E 20 417 6
E 21 22 10
E 21 425 7
E 21 429 3
E 22 24 7
E 22 437 1
E 23 30 3
E 23 420 6
E 23 425 3
E 23 429 7
E 24 425 10
E 24 430 6
E 24 433 1
E 25 26 10
E 25 404 7
E 25 408 3
E 26 28 7
E 26 423 1
E 27 32 3
E 27 399 6
E 27 404 3
E 27 408 7
E 28 404 10
E 28 409 6
E 28 417 1
E 29 33 7
E 29 403 6
E 29 407 1
E 29 419 10
E 30 415 6
E 30 419 3
E 30 427 7
E 31 38 7
E 31 382 6
E 31 385 1
E 31 398 10
E 32 393 6
E 32 398 3
E 32 405 7
E 33 34 10
E 33 414 1
E 34 419 7
E 34 427 3
E 35 45 5
E 35 400 3
E 35 403 1
E 35 407 6
E 36 37 10
E 36 38 7
E 36 400 1
E 36 403 3
E 37 39 7
E 37 412 3
E 37 413 3
E 38 39 10
E 38 391 1
E 39 398 7
E 39 405 3
E 40 48 5
E 40 375 3
E 40 382 1
E 40 385 6
E 41 42 10
E 41 375 1
E 41 382 3
E 42 388 3
E 42 389 3
E 43 44 10
E 43 53 7
E 43 380 3
E 43 386 3
E 44 54 7
E 44 395 1
E 44 397 3
E 45 395 3
E 45 397 1
E 45 402 6
E 46 47 10
E 46 358 3
E 46 365 3
E 47 370 1
E 47 373 3
E 48 370 3
E 48 373 1
E 48 381 6
E 49 50 10
E 49 390 7
E 49 396 3
E 50 52 7
E 50 410 1
E 51 58 3
E 51 384 6
E 51 390 3
E 51 396 7
E 52 390 10
E 52 397 6
E 52 402 1
E 53 54 10
E 53 368 7
E 53 372 3
E 54 56 7
E 54 387 1
E 55 60 3
E 55 363 6
E 55 368 3
E 55 372 7
E 56 368 10
E 56 373 6
E 56 381 1
E 57 61 7
E 57 367 6
E 57 371 1
E 57 383 10
E 58 379 6
E 58 383 3
E 58 392 7
E 59 66 7
E 59 346 6
E 59 349 1
E 59 362 10
E 60 357 6
E 60 362 3
E 60 369 7
E 61 62 10
E 61 378 1
E 62 383 7
E 62 392 3
E 63 73 5
E 63 364 3
E 63 367 1
E 63 371 6
E 64 65 10
E 64 66 7
E 64 364 1
E 64 367 3
E 65 67 7
E 65 376 3
E 65 377 3
E 66 67 10
E 66 355 1
E 67 362 7
E 67 369 3
E 68 76 5
E 68 339 3
E 68 346 1
E 68 349 6
E 69 70 10
E 69 339 1
E 69 346 3
E 70 352 3
E 70 353 3
E 71 72 10
E 71 81 7
E 71 344 3
E 71 350 3
E 72 82 7
E 72 359 1
E 72 361 3
E 73 359 3
E 73 361 1
E 73 366 6
E 74 75 10
E 74 322 3
E 74 329 3
E 75 334 1
E 75 337 3
E 76 334 3
E 76 337 1
E 76 345 6
E 77 78 10
E 77 354 7
E 77 360 3
E 78 80 7
E 78 374 1
E 79 86 3
E 79 348 6
E 79 354 3
E 79 360 7
E 80 354 10
E 80 361 6
E 80 366 1
E 81 82 10
E 81 332 7
E 81 336 3
E 82 84 7
E 82 351 1
E 83 88 3
E 83 327 6
E 83 332 3
E 83 336 7
E 84 332 10
E 84 337 6
E 84 345 1
E 85 89 7
E 85 331 6
E 85 335 1
E 85 347 10
E 86 343 6
E 86 347 3
E 86 356 7
E 87 94 7
E 87 310 6
E 87 313 1
E 87 326 10
E 88 321 6
E 88 326 3
E 88 333 7
E 89 90 10
E 89 342 1
E 90 347 7
E 90 356 3
E 91 101 5
E 91 328 3
E 91 331 1
E 91 335 6
E 92 93 10
E 92 94 7
E 92 328 1
E 92 331 3
E 93 95 7
E 93 340 3
E 93 341 3
E 94 95 10
E 94 319 1
E 95 326 7
E 95 333 3
E 96 104 5
E 96 303 3
E 96 310 1
E 96 313 6
E 97 98 10
E 97 303 1
E 97 310 3
E 98 316 3
E 98 317 3
E 99 100 10
E 99 109 7
E 99 308 3
E 99 314 3
E 100 110 7
E 100 323 1
E 100 325 3
E 101 323 3
E 101 325 1
E 101 330 6
E 102 103 10
E 102 286 3
E 102 293 3
E 103 298 1
E 103 301 3
E 104 298 3
E 104 301 1
E 104 309 6
E 105 106 10
E 105 318 7
E 105 324 3
E 106 108 7
E 106 338 1
E 107 114 3
E 107 312 6
E 107 318 3
E 107 324 7
E 108 318 10
E 108 325 6
E 108 330 1
E 109 110 10
E 109 296 7
E 109 300 3
E 110 112 7
E 110 315 1
E 111 116 3
E 111 291 6
E 111 296 3
E 111 300 7
E 112 296 10
E 112 301 6
E 112 309 1
E 113 117 7
E 113 295 6
E 113 299 1
E 113 311 10
E 114 307 6
E 114 311 3
E 114 320 7
E 115 122 7
E 115 274 6
E 115 277 1
E 115 290 10
E 116 285 6
E 116 290 3
E 116 297 7
E 117 118 10
E 117 306 1
E 118 311 7
E 118 320 3
E 119 129 5
E 119 292 3
E 119 295 1
E 119 299 6
E 120 121 10
E 120 122 7
E 120 292 1
E 120 295 3
E 121 123 7
E 121 304 3
E 121 305 3
E 122 123 10
E 122 283 1
E 123 290 7
E 123 297 3
E 124 132 5
E 124 267 3
E 124 274 1
E 124 277 6
E 125 126 10
E 125 267 1
E 125 274 3
E 126 280 3
E 126 281 3
E 127 128 10
E 127 137 7
E 127 272 3
E 127 278 3
E 128 138 7
E 128 287 1
E 128 289 3
E 129 287 3
E 129 289 1
E 129 294 6
E 130 131 10
E 130 250 3
E 130 257 3
E 131 262 1
E 131 265 3
E 132 262 3
E 132 265 1
E 132 273 6
E 133 134 10
E 133 282 7
E 133 288 3
E 134 136 7
E 134 302 1
E 135 142 3
E 135 276 6
E 135 282 3
E 135 288 7
E 136 282 10
E 136 289 6
E 136 294 1
E 137 138 10
E 137 260 7
E 137 264 3
E 138 140 7
E 138 279 1
E 139 144 3
E 139 255 6
E 139 260 3
E 139 264 7
E 140 260 10
E 140 265 6
E 140 273 1
E 141 145 7
E 141 259 6
E 141 263 1
E 141 275 10
E 142 271 6
E 142 275 3
E 142 284 7
E 143 150 7
E 143 238 6
E 143 241 1
E 143 254 10
E 144 249 6
E 144 254 3
E 144 261 7
E 145 146 10
E 145 270 1
E 146 275 7
E 146 284 3
E 147 157 5
E 147 256 3
E 147 259 1
E 147 263 6
E 148 149 10
E 148 150 7
E 148 256 1
E 148 259 3
E 149 151 7
E 149 268 3
E 149 269 3
E 150 151 10
E 150 247 1
E 151 254 7
E 151 261 3
E 152 160 5
E 152 231 3
E 152 238 1
E 152 241 6
E 153 154 10
E 153 231 1
E 153 238 3
E 154 244 3
E 154 245 3
E 155 156 10
E 155 165 7
E 155 236 3
E 155 242 3
E 156 166 7
E 156 251 1
E 156 253 3
E 157 251 3
E 157 253 1
E 157 258 6
E 158 159 10
E 158 215 3
E 158 221 3
E 159 226 1
E 159 229 3
E 160 226 3
E 160 229 1
E 160 237 6
E 161 162 10
E 161 246 7
E 161 252 3
E 162 164 7
E 162 266 1
E 163 170 3
E 163 240 6
E 163 246 3
E 163 252 7
E 164 246 10
E 164 253 6
E 164 258 1
E 165 166 10
E 165 224 7
E 165 228 3
E 166 168 7
E 166 243 1
E 167 172 3
E 167 219 6
E 167 224 3
E 167 228 7
E 168 224 10
E 168 229 6
E 168 237 1
E 169 173 7
E 169 223 6
E 169 227 1
E 169 239 10
E 170 235 6
E 170 239 3
E 170 248 7
E 171 178 7
E 171 206 6
E 171 207 1
E 171 218 10
E 172 214 6
E 172 218 3
E 172 225 7
E 173 174 10
E 173 234 1
E 174 239 7
E 174 248 3
E 175 185 5
E 175 220 3
E 175 223 1
E 175 227 6
E 176 177 10
E 176 178 7
E 176 220 1
E 176 223 3
E 177 179 7
E 177 232 3
E 177 233 3
E 178 179 10
E 178 213 1
E 179 218 7
E 179 225 3
E 180 188 5
E 180 203 3
E 180 206 1
E 180 207 6
E 181 182 10
E 181 203 1
E 181 206 3
E 182 210 3
E 182 211 3
E 183 184 10
E 183 193 7
E 183 204 3
E 183 208 3
E 184 194 7
E 184 216 1
E 184 217 3
E 185 216 3
E 185 217 1
E 185 222 6
E 186 187 10
E 186 198 3
E 187 200 1
E 187 202 3
E 188 200 3
E 188 202 1
E 188 205 6
E 189 190 10
E 189 212 7
E 190 192 7
E 190 230 1
E 191 204 9
E 191 212 3
E 192 212 10
E 192 217 6
E 192 222 1
E 193 194 10
E 193 199 7
E 193 201 3
E 194 196 7
E 194 209 1
E 195 199 3
E 195 201 7
E 196 199 10
E 196 202 6
E 196 205 1
E 197 442 56
E 198 199 6
E 198 202 10
E 200 203 5
E 201 204 7
E 205 207 5
E 205 209 7
E 206 210 10
E 207 213 7
E 208 212 6
E 208 217 10
E 209 213 5
E 209 216 7
E 210 214 3
E 210 218 6
E 211 214 3
E 211 215 3
E 213 220 7
E 214 219 3
E 215 219 3
E 216 220 5
E 219 221 3
E 221 224 6
E 221 229 10
E 222 227 5
E 222 230 7
E 223 232 10
E 225 228 3
E 225 233 7
E 226 231 5
E 227 234 7
E 228 236 7
E 230 234 5
E 232 235 3
E 232 239 6
E 233 235 3
E 233 236 3
E 235 240 3
E 236 240 3
E 237 241 5
E 237 243 7
E 238 244 10
E 240 242 3
E 241 247 7
E 242 246 6
E 242 253 10
E 243 247 5
E 243 251 7
E 244 249 3
E 244 254 6
E 245 249 3
E 245 250 3
E 247 256 7
E 248 252 3
E 249 255 3
E 250 255 3
E 251 256 5
E 255 257 3
E 257 260 6
E 257 265 10
E 258 263 5
E 258 266 7
E 259 268 10
E 261 264 3
E 261 269 7
E 262 267 5
E 263 270 7
E 264 272 7
E 266 270 5
E 268 271 3
E 268 275 6
E 269 271 3
E 269 272 3
E 271 276 3
E 272 276 3
E 273 277 5
E 273 279 7
E 274 280 10
E 276 278 3
E 277 283 7
E 278 282 6
E 278 289 10
E 279 283 5
E 279 287 7
E 280 285 3
E 280 290 6
E 281 285 3
E 281 286 3
E 283 292 7
E 284 288 3
E 285 291 3
E 286 291 3
E 287 292 5
E 291 293 3
E 293 296 6
E 293 301 10
E 294 299 5
E 294 302 7
E 295 304 10
E 297 300 3
E 297 305 7
E 298 303 5
E 299 306 7
E 300 308 7
E 302 306 5
E 304 307 3
E 304 311 6
E 305 307 3
E 305 308 3
E 307 312 3
E 308 312 3
E 309 313 5
E 309 315 7
E 310 316 10
E 312 314 3
E 313 319 7
E 314 318 6
E 314 325 10
E 315 319 5
E 315 323 7
E 316 321 3
E 316 326 6
E 317 321 3
E 317 322 3
E 319 328 7
E 320 324 3
E 321 327 3
E 322 327 3
E 323 328 5
E 327 329 3
E 329 332 6
E 329 337 10
E 330 335 5
E 330 338 7
E 331 340 10
E 333 336 3
E 333 341 7
E 334 339 5
E 335 342 7
E 336 344 7
E 338 342 5
E 340 343 3
E 340 347 6
E 341 343 3
E 341 344 3
E 343 348 3
E 344 348 3
E 345 349 5
E 345 351 7
E 346 352 10
E 348 350 3
E 349 355 7
E 350 354 6
E 350 361 10
E 351 355 5
E 351 359 7
E 352 357 3
E 352 362 6
E 353 357 3
E 353 358 3
E 355 364 7
E 356 360 3
E 357 363 3
E 358 363 3
E 359 364 5
E 363 365 3
E 365 368 6
E 365 373 10
E 366 371 5
E 366 374 7
E 367 376 10
E 369 372 3
E 369 377 7
E 370 375 5
E 371 378 7
E 372 380 7
E 374 378 5
E 376 379 3
E 376 383 6
E 377 379 3
E 377 380 3
E 379 384 3
E 380 384 3
E 381 385 5
E 381 387 7
E 382 388 10
E 384 386 3
E 385 391 7
E 386 390 6
E 386 397 10
E 387 391 5
E 387 395 7
E 388 393 3
E 388 398 6
E 389 393 3
E 389 394 3
E 391 400 7
E 392 396 3
E 393 399 3
E 394 399 3
E 395 400 5
E 399 401 3
E 401 404 6
E 401 409 10
E 402 407 5
E 402 410 7
E 403 412 10
E 405 408 3
E 405 413 7
E 406 411 5
E 407 414 7
E 408 416 7
E 410 414 5
E 412 415 3
E 412 419 6
E 413 415 3
E 413 416 3
E 415 420 3
E 416 420 3
E 417 421 5
E 417 423 7
E 418 424 10
E 420 422 3
E 421 426 7
E 422 425 6
E 422 430 10
E 423 426 5
E 423 428 7
E 424 431 6
E 426 432 7
E 427 429 3
E 428 432 5
E 433 436 5
E 433 437 7
E 434 439 10
E 435 440 7
E 436 441 7
E 437 441 5
E 438 442 7
E 438 443 7
E 439 443 6
E 1 444 100000
E 2 444 100000
E 3 445 100000
E 4 445 100000
E 5 446 100000
E 6 446 100000
E 7 447 100000
E 8 447 100000
E 9 447 100000
E 10 448 100000
E 11 448 100000
E 12 449 100000
E 13 449 100000
E 14 449 100000
E 15 450 100000
E 16 450 100000
E 17 450 100000
E 18 451 100000
E 19 451 100000
E 20 451 100000
E 21 452 100000
E 22 452 100000
E 23 453 100000
E 24 453 100000
E 25 454 100000
E 26 454 100000
E 27 455 100000
E 28 455 100000
E 29 456 100000
E 30 456 100000
E 31 457 100000
E 32 457 100000
E 33 458 100000
E 34 458 100000
E 35 459 100000
E 36 459 100000
E 37 459 100000
E 38 460 100000
E 39 460 100000
E 40 461 100000
E 41 461 100000
E 42 461 100000
E 43 462 100000
E 44 462 100000
E 45 462 100000
E 46 463 100000
E 47 463 100000
E 48 463 100000
E 49 464 100000
E 50 464 100000
E 51 465 100000
E 52 465 100000
E 53 466 100000
E 54 466 100000
E 55 467 100000
E 56 467 100000
E 57 468 100000
E 58 468 100000
E 59 469 100000
E 60 469 100000
E 61 470 100000
E 62 470 100000
E 63 471 100000
E 64 471 100000
E 65 471 100000
E 66 472 100000
E 67 472 100000
E 68 473 100000
E 69 473 100000
E 70 473 100000
E 71 474 100000
E 72 474 100000
E 73 474 100000
E 74 475 100000
E 75 475 100000
E 76 475 100000
E 77 476 100000
E 78 476 100000
E 79 477 100000
E 80 477 100000
E 81 478 100000
E 82 478 100000
E 83 479 100000
E 84 479 100000
E 85 480 100000
E 86 480 100000
E 87 481 100000
E 88 481 100000
E 89 482 100000
E 90 482 100000
E 91 483 100000
E 92 483 100000
E 93 483 100000
E 94 484 100000
E 95 484 100000
E 96 485 100000
E 97 485 100000
E 98 485 100000
E 99 486 100000
E 100 486 100000
E 101 486 100000
E 102 487 100000
E 103 487 100000
E 104 487 100000
E 105 488 100000
E 106 488 100000
E 107 489 100000
E 108 489 100000
E 109 490 100000
E 110 490 100000
E 111 491 100000
E 112 491 100000
E 113 492 100000
E 114 492 100000
E 115 493 100000
E 116 493 100000
E 117 494 100000
E 118 494 100000
E 119 495 100000
E 120 495 100000
E 121 495 100000
E 122 496 100000
E 123 496 100000
E 124 497 100000
E 125 497 100000
E 126 497 100000
E 127 498 100000
E 128 498 100000
E 129 498 100000
E 130 499 100000
E 131 499 100000
E 132 499 100000
E 133 500 100000
E 134 500 100000
E 135 501 100000
E 136 501 100000
E 137 502 100000
E 138 502 100000
E 139 503 100000
E 140 503 100000
E 141 504 100000
E 142 504 100000
E 143 505 100000
E 144 505 100000
E 145 506 100000
E 146 506 100000
E 147 507 100000
E 148 507 100000
E 149 507 100000
E 150 508 100000
E 151 508 100000
E 152 509 100000
E 153 509 100000
E 154 509 100000
E 155 510 100000
E 156 510 100000
E 157 510 100000
E 158 511 100000
E 159 511 100000
E 160 511 100000
E 161 512 100000
E 162 512 100000
E 163 513 100000
E 164 513 100000
E 165 514 100000
E 166 514 100000
E 167 515 100000
E 168 515 100000
E 169 516 100000
E 170 516 100000
E 171 517 100000
E 172 517 100000
E 173 518 100000
E 174 518 100000
E 175 519 100000
E 176 519 100000
E 177 519 100000
E 178 520 100000
E 179 520 100000
E 180 521 100000
E 181 521 100000
E 182 521 100000
E 183 522 100000
E 184 522 100000
E 185 522 100000
E 186 523 100000
E 187 523 100000
E 188 523 100000
E 189 524 100000
E 190 524 100000
E 191 525 100000
E 192 525 100000
E 193 526 100000
E 194 526 100000
E 195 527 100000
E 196 527 100000
E 197 528 100000
END

SECTION Terminals
Terminals 85
T 444
T 445
T 446
T 447
T 448
T 449
T 450
T 451
T 452
T 453
T 454
T 455
T 456
T 457
T 458
T 459
T 460
T 461
T 462
T 463
T 464
T 465
T 466
T 467
T 468
T 469
T 470
T 471
T 472
T 473
T 474
T 475
T 476
T 477
T 478
T 479
T 480
T 481
T 482
T 483
T 484
T 485
T 486
T 487
T 488
T 489
T 490
T 491
T 492
T 493
T 494
T 495
T 496
T 497
T 498
T 499
T 500
T 501
T 502
T 503
T 504
T 505
T 506
T 507
T 508
T 509
T 510
T 511
T 512
T 513
T 514
T 515
T 516
T 517
T 518
T 519
T 520
T 521
T 522
T 523
T 524
T 525
T 526
T 527
T 528
END

EOF
